Welcome to the CBC MILP Solver 
Version: Trunk
Build Date: Apr 16 2020 

Starting solution of the Linear programming relaxation problem using Primal Simplex

Using Python-MIP package version 1.8.1
Machines:  3 Jobs:  3
Order: 
Job  0 : machine 1 ( 7 ) machine 2 ( 7 ) machine 0 ( 1 ) 
Job  1 : machine 1 ( 4 ) machine 0 ( 3 ) machine 2 ( 7 ) 
Job  2 : machine 1 ( 7 ) machine 2 ( 6 ) machine 0 ( 2 ) 
K:  33
Job  0 , e: machine  0 ( 14 ) machine  1 ( 0 ) machine  2 ( 7 ) 
Job  1 , e: machine  0 ( 4 ) machine  1 ( 0 ) machine  2 ( 7 ) 
Job  2 , e: machine  0 ( 13 ) machine  1 ( 0 ) machine  2 ( 7 ) 
Job  0 , f: machine  0 ( 0 ) machine  1 ( 8 ) machine  2 ( 1 ) 
Job  1 , f: machine  0 ( 7 ) machine  1 ( 10 ) machine  2 ( 0 ) 
Job  2 , f: machine  0 ( 0 ) machine  1 ( 8 ) machine  2 ( 2 ) 
EST and LST:
Job: 0 Machine: 0 EST: 14 LST: 32
Job: 0 Machine: 1 EST: 0 LST: 18
Job: 0 Machine: 2 EST: 7 LST: 25
Job: 1 Machine: 0 EST: 4 LST: 23
Job: 1 Machine: 1 EST: 0 LST: 19
Job: 1 Machine: 2 EST: 7 LST: 26
Job: 2 Machine: 0 EST: 13 LST: 31
Job: 2 Machine: 1 EST: 0 LST: 18
Job: 2 Machine: 2 EST: 7 LST: 25
Order:
Job: 0 Machine: 0 = 2 
Job: 0 Machine: 1 = 0 
Job: 0 Machine: 2 = 1 
Job: 1 Machine: 0 = 1 
Job: 1 Machine: 1 = 0 
Job: 1 Machine: 2 = 2 
Job: 2 Machine: 0 = 2 
Job: 2 Machine: 1 = 0 
Job: 2 Machine: 2 = 1 
Distances:
Job 0, Machine 1 -> Machine 2: distance 7
Job 0, Machine 1 -> Machine 0: distance 14
Job 0, Machine 2 -> Machine 0: distance 7
Job 1, Machine 1 -> Machine 0: distance 4
Job 1, Machine 1 -> Machine 2: distance 7
Job 1, Machine 0 -> Machine 2: distance 3
Job 2, Machine 1 -> Machine 2: distance 7
Job 2, Machine 1 -> Machine 0: distance 13
Job 2, Machine 2 -> Machine 0: distance 6
McCormic linearization
{(0, 1), (1, 2), (0, 2), (2, 0), (2, 2), (1, 0), (1, 1)}
[(0, 1), (1, 2), (0, 2), (2, 0), (2, 2), (1, 0), (1, 1)]
obj:  0.0
solutions:  1
+ 0.25x(0,1) + 0.14285714285714285x(1,1) 
C:  17.181818181818183
x(0,0) = 16.18	 x(0,1) = 2.18	 x(0,2) = 9.18	 
x(1,0) = 7.18	 x(1,1) = 3.18	 x(1,2) = 10.18	 
x(2,0) = 15.18	 x(2,1) = 1.39	 x(2,2) = 8.39	 
y(0,1,0) = 0.00	 y(1,0,0) = 1.00	 
y(0,2,0) = 0.90	 y(2,0,0) = 0.10	 
y(1,2,0) = 0.71	 y(2,1,0) = 0.29	 
y(0,1,1) = 0.45	 y(1,0,1) = 0.55	 
y(0,2,1) = 0.69	 y(2,0,1) = 0.31	 
y(1,2,1) = 0.55	 y(2,1,1) = 0.45	 
y(0,1,2) = 0.69	 y(1,0,2) = 0.31	 
y(0,2,2) = 0.50	 y(2,0,2) = 0.50	 
y(1,2,2) = 0.31	 y(2,1,2) = 0.69	 
{(0, 1), (1, 2), (2, 1), (1, 1), (2, 2), (0, 2)}
obj:  0.35930735930735924
solutions:  1
+ 0.06666666666666667x(0,1) + 0.06666666666666667x(2,1) + 0.038095238095238106x(1,1) 
[(0, 1), (1, 2), (2, 1), (1, 1), (2, 2), (0, 2)]
cliques:  1 mip: 43
C:  20.656862745097378
x(0,0) = 19.54	 x(0,1) = 5.54	 x(0,2) = 12.54	 
x(1,0) = 10.66	 x(1,1) = 6.66	 x(1,2) = 13.66	 
x(2,0) = 18.66	 x(2,1) = 5.66	 x(2,2) = 12.66	 
y(0,1,0) = 0.00	 y(1,0,0) = 1.00	 
y(0,2,0) = 0.06	 y(2,0,0) = 0.94	 
y(1,2,0) = 0.56	 y(2,1,0) = 0.44	 
y(0,1,1) = 0.22	 y(1,0,1) = 0.78	 
y(0,2,1) = 0.72	 y(2,0,1) = 0.28	 
y(1,2,1) = 0.24	 y(2,1,1) = 0.76	 
y(0,1,2) = 0.31	 y(1,0,2) = 0.69	 
y(0,2,2) = 0.25	 y(2,0,2) = 0.75	 
y(1,2,2) = 0.49	 y(2,1,2) = 0.51	 
{(1, 2), (0, 1), (2, 1), (1, 1), (2, 2), (1, 0), (0, 2)}
obj:  0.9498671263377023
solutions:  1
+ 0.025641025641025623x(1,2) + 0.02197802197802198x(2,2) + 0.02564102564102565x(0,2) 
[(1, 2), (0, 1), (2, 1), (1, 1), (2, 2), (1, 0), (0, 2)]
cliques:  1 mip: 53
C:  22.77878508973768
x(0,0) = 21.78	 x(0,1) = 6.02	 x(0,2) = 14.78	 
x(1,0) = 9.53	 x(1,1) = 5.53	 x(1,2) = 13.24	 
x(2,0) = 18.82	 x(2,1) = 5.82	 x(2,2) = 12.82	 
y(0,1,0) = 0.00	 y(1,0,0) = 1.00	 
y(0,2,0) = 0.00	 y(2,0,0) = 1.00	 
y(1,2,0) = 0.68	 y(2,1,0) = 0.32	 
y(0,1,1) = 0.32	 y(1,0,1) = 0.68	 
y(0,2,1) = 0.27	 y(2,0,1) = 0.73	 
y(1,2,1) = 0.67	 y(2,1,1) = 0.33	 
y(0,1,2) = 0.66	 y(1,0,2) = 0.34	 
y(0,2,2) = 0.64	 y(2,0,2) = 0.36	 
y(1,2,2) = 0.61	 y(2,1,2) = 0.39	 
{(1, 2), (0, 1), (2, 1), (1, 1), (2, 2), (1, 0), (0, 2)}
obj:  0.9999999999999987
erro
[(1, 2), (0, 1), (2, 1), (1, 1), (2, 2), (1, 0), (0, 2)]
cliques:  0 mip: 93
C:  23.83725666367175
x(0,0) = 22.84	 x(0,1) = 3.22	 x(0,2) = 10.22	 
x(1,0) = 13.84	 x(1,1) = 8.48	 x(1,2) = 16.84	 
x(2,0) = 19.93	 x(2,1) = 6.93	 x(2,2) = 13.93	 
y(0,1,0) = 0.00	 y(1,0,0) = 1.00	 
y(0,2,0) = 0.00	 y(2,0,0) = 1.00	 
y(1,2,0) = 0.30	 y(2,1,0) = 0.70	 
y(0,1,1) = 0.69	 y(1,0,1) = 0.31	 
y(0,2,1) = 0.83	 y(2,0,1) = 0.17	 
y(1,2,1) = 0.68	 y(2,1,1) = 0.32	 
y(0,1,2) = 0.97	 y(1,0,2) = 0.03	 
y(0,2,2) = 0.65	 y(2,0,2) = 0.35	 
y(1,2,2) = 0.62	 y(2,1,2) = 0.38	 
{(1, 2), (0, 1), (0, 2), (2, 1), (2, 2), (1, 0), (1, 1)}
obj:  1.0000000000000002
erro
[(1, 2), (0, 1), (0, 2), (2, 1), (2, 2), (1, 0), (1, 1)]
cliques:  0 mip: 85
C:  24.45006777965264
x(0,0) = 23.45	 x(0,1) = 5.57	 x(0,2) = 13.17	 
x(1,0) = 11.36	 x(1,1) = 7.36	 x(1,2) = 14.36	 
x(2,0) = 19.38	 x(2,1) = 5.77	 x(2,2) = 13.38	 
y(0,1,0) = 0.00	 y(1,0,0) = 1.00	 
y(0,2,0) = 0.00	 y(2,0,0) = 1.00	 
y(1,2,0) = 0.49	 y(2,1,0) = 0.51	 
y(0,1,1) = 0.32	 y(1,0,1) = 0.68	 
y(0,2,1) = 0.60	 y(2,0,1) = 0.40	 
y(1,2,1) = 0.39	 y(2,1,1) = 0.61	 
y(0,1,2) = 0.59	 y(1,0,2) = 0.41	 
y(0,2,2) = 0.47	 y(2,0,2) = 0.53	 
y(1,2,2) = 0.39	 y(2,1,2) = 0.61	 
{(0, 1), (1, 2), (0, 2), (2, 0), (2, 2), (1, 0), (1, 1)}
obj:  1.0000000000000002
erro
[(0, 1), (1, 2), (0, 2), (2, 0), (2, 2), (1, 0), (1, 1)]
cliques:  0 mip: 91
C:  24.999999999999993
x(0,0) = 24.00	 x(0,1) = 6.93	 x(0,2) = 14.45	 
x(1,0) = 11.53	 x(1,1) = 7.53	 x(1,2) = 14.53	 
x(2,0) = 17.68	 x(2,1) = 3.76	 x(2,2) = 11.68	 
y(0,1,0) = 0.00	 y(1,0,0) = 1.00	 
y(0,2,0) = 0.00	 y(2,0,0) = 1.00	 
y(1,2,0) = 0.32	 y(2,1,0) = 0.68	 
y(0,1,1) = 0.20	 y(1,0,1) = 0.80	 
y(0,2,1) = 0.52	 y(2,0,1) = 0.48	 
y(1,2,1) = 0.13	 y(2,1,1) = 0.87	 
y(0,1,2) = 0.51	 y(1,0,2) = 0.49	 
y(0,2,2) = 0.36	 y(2,0,2) = 0.64	 
y(1,2,2) = 0.43	 y(2,1,2) = 0.57	 
{(1, 2), (0, 1), (0, 2), (1, 0), (1, 1)}
obj:  1.3802366889352369
erro
[(1, 2), (0, 1), (0, 2), (1, 0), (1, 1)]
cliques:  0 mip: 81
C:  25.0
x(0,0) = 24.00	 x(0,1) = 6.28	 x(0,2) = 13.89	 
x(1,0) = 12.25	 x(1,1) = 7.99	 x(1,2) = 15.25	 
x(2,0) = 17.86	 x(2,1) = 4.15	 x(2,2) = 11.86	 
y(0,1,0) = 0.00	 y(1,0,0) = 1.00	 
y(0,2,0) = 0.00	 y(2,0,0) = 1.00	 
y(1,2,0) = 0.26	 y(2,1,0) = 0.74	 
y(0,1,1) = 0.53	 y(1,0,1) = 0.47	 
y(0,2,1) = 0.61	 y(2,0,1) = 0.39	 
y(1,2,1) = 0.35	 y(2,1,1) = 0.65	 
y(0,1,2) = 0.60	 y(1,0,2) = 0.40	 
y(0,2,2) = 0.44	 y(2,0,2) = 0.56	 
y(1,2,2) = 0.34	 y(2,1,2) = 0.66	 
{(0, 1), (1, 1), (2, 1)}
obj:  1.0
erro
[(0, 1), (1, 1), (2, 1)]
cliques:  0 mip: 87
C:  25.028867998230275
x(0,0) = 24.03	 x(0,1) = 5.65	 x(0,2) = 12.74	 
x(1,0) = 14.29	 x(1,1) = 10.29	 x(1,2) = 17.29	 
x(2,0) = 16.47	 x(2,1) = 3.47	 x(2,2) = 10.47	 
y(0,1,0) = 0.00	 y(1,0,0) = 1.00	 
y(0,2,0) = 0.00	 y(2,0,0) = 1.00	 
y(1,2,0) = 0.33	 y(2,1,0) = 0.67	 
y(0,1,1) = 0.84	 y(1,0,1) = 0.16	 
y(0,2,1) = 0.19	 y(2,0,1) = 0.81	 
y(1,2,1) = 0.01	 y(2,1,1) = 0.99	 
y(0,1,2) = 0.84	 y(1,0,2) = 0.16	 
y(0,2,2) = 0.61	 y(2,0,2) = 0.39	 
y(1,2,2) = 0.09	 y(2,1,2) = 0.91	 
{(0, 1), (0, 2), (2, 1), (2, 2), (1, 1)}
obj:  1.0
erro
[(0, 1), (0, 2), (2, 1), (2, 2), (1, 1)]
cliques:  0 mip: 93
C:  26.0
x(0,0) = 25.00	 x(0,1) = 8.43	 x(0,2) = 15.43	 
x(1,0) = 11.81	 x(1,1) = 7.19	 x(1,2) = 14.81	 
x(2,0) = 23.00	 x(2,1) = 5.31	 x(2,2) = 12.31	 
y(0,1,0) = 0.00	 y(1,0,0) = 1.00	 
y(0,2,0) = 0.00	 y(2,0,0) = 1.00	 
y(1,2,0) = 0.51	 y(2,1,0) = 0.49	 
y(0,1,1) = 0.18	 y(1,0,1) = 0.82	 
y(0,2,1) = 0.20	 y(2,0,1) = 0.80	 
y(1,2,1) = 0.20	 y(2,1,1) = 0.80	 
y(0,1,2) = 0.47	 y(1,0,2) = 0.53	 
y(0,2,2) = 0.37	 y(2,0,2) = 0.63	 
y(1,2,2) = 0.52	 y(2,1,2) = 0.48	 
{(0, 1), (1, 2), (2, 0), (1, 1), (2, 2), (1, 0), (0, 2)}
obj:  1.0459905751937173
erro
[(0, 1), (1, 2), (2, 0), (1, 1), (2, 2), (1, 0), (0, 2)]
cliques:  0 mip: 76
C:  26.0
x(0,0) = 25.00	 x(0,1) = 8.75	 x(0,2) = 15.75	 
x(1,0) = 11.17	 x(1,1) = 7.17	 x(1,2) = 14.17	 
x(2,0) = 23.00	 x(2,1) = 4.27	 x(2,2) = 11.90	 
y(0,1,0) = 0.00	 y(1,0,0) = 1.00	 
y(0,2,0) = 0.00	 y(2,0,0) = 1.00	 
y(1,2,0) = 0.48	 y(2,1,0) = 0.52	 
y(0,1,1) = 0.17	 y(1,0,1) = 0.83	 
y(0,2,1) = 0.15	 y(2,0,1) = 0.85	 
y(1,2,1) = 0.16	 y(2,1,1) = 0.84	 
y(0,1,2) = 0.46	 y(1,0,2) = 0.54	 
y(0,2,2) = 0.32	 y(2,0,2) = 0.68	 
y(1,2,2) = 0.59	 y(2,1,2) = 0.41	 
{(1, 2), (0, 1), (2, 0), (1, 1), (2, 2), (1, 0), (0, 2)}
obj:  1.0286917840439997
erro
[(1, 2), (0, 1), (2, 0), (1, 1), (2, 2), (1, 0), (0, 2)]
cliques:  0 mip: 79
C:  26.0
x(0,0) = 25.00	 x(0,1) = 8.54	 x(0,2) = 15.95	 
x(1,0) = 11.04	 x(1,1) = 7.04	 x(1,2) = 14.04	 
x(2,0) = 23.00	 x(2,1) = 5.40	 x(2,2) = 12.40	 
y(0,1,0) = 0.00	 y(1,0,0) = 1.00	 
y(0,2,0) = 0.00	 y(2,0,0) = 1.00	 
y(1,2,0) = 0.91	 y(2,1,0) = 0.09	 
y(0,1,1) = 0.19	 y(1,0,1) = 0.81	 
y(0,2,1) = 0.15	 y(2,0,1) = 0.85	 
y(1,2,1) = 0.30	 y(2,1,1) = 0.70	 
y(0,1,2) = 0.42	 y(1,0,2) = 0.58	 
y(0,2,2) = 0.29	 y(2,0,2) = 0.71	 
y(1,2,2) = 0.62	 y(2,1,2) = 0.38	 
{(1, 2), (0, 1), (0, 2), (1, 0), (1, 1)}
obj:  1.4281582170292024
erro
[(1, 2), (0, 1), (0, 2), (1, 0), (1, 1)]
cliques:  0 mip: 66
C:  26.0
x(0,0) = 25.00	 x(0,1) = 9.19	 x(0,2) = 16.19	 
x(1,0) = 10.85	 x(1,1) = 6.85	 x(1,2) = 14.13	 
x(2,0) = 23.00	 x(2,1) = 3.95	 x(2,2) = 10.95	 
y(0,1,0) = 0.00	 y(1,0,0) = 1.00	 
y(0,2,0) = 0.00	 y(2,0,0) = 1.00	 
y(1,2,0) = 0.90	 y(2,1,0) = 0.10	 
y(0,1,1) = 0.14	 y(1,0,1) = 0.86	 
y(0,2,1) = 0.07	 y(2,0,1) = 0.93	 
y(1,2,1) = 0.17	 y(2,1,1) = 0.83	 
y(0,1,2) = 0.40	 y(1,0,2) = 0.60	 
y(0,2,2) = 0.26	 y(2,0,2) = 0.74	 
y(1,2,2) = 0.61	 y(2,1,2) = 0.39	 
{(1, 2), (0, 1), (0, 2), (1, 0), (1, 1)}
obj:  1.444220614022237
erro
[(1, 2), (0, 1), (0, 2), (1, 0), (1, 1)]
cliques:  0 mip: 76
C:  26.0
x(0,0) = 25.00	 x(0,1) = 8.07	 x(0,2) = 15.07	 
x(1,0) = 11.43	 x(1,1) = 7.43	 x(1,2) = 15.48	 
x(2,0) = 23.00	 x(2,1) = 4.70	 x(2,2) = 11.70	 
y(0,1,0) = 0.00	 y(1,0,0) = 1.00	 
y(0,2,0) = 0.00	 y(2,0,0) = 1.00	 
y(1,2,0) = 0.88	 y(2,1,0) = 0.12	 
y(0,1,1) = 0.20	 y(1,0,1) = 0.80	 
y(0,2,1) = 0.15	 y(2,0,1) = 0.85	 
y(1,2,1) = 0.26	 y(2,1,1) = 0.74	 
y(0,1,2) = 0.58	 y(1,0,2) = 0.42	 
y(0,2,2) = 0.42	 y(2,0,2) = 0.58	 
y(1,2,2) = 0.18	 y(2,1,2) = 0.82	 
{(1, 2), (0, 1), (0, 2), (1, 0), (1, 1)}
obj:  1.455015783079039
erro
[(1, 2), (0, 1), (0, 2), (1, 0), (1, 1)]
cliques:  0 mip: 73
C:  26.000000000000004
x(0,0) = 25.00	 x(0,1) = 9.63	 x(0,2) = 16.63	 
x(1,0) = 10.34	 x(1,1) = 6.34	 x(1,2) = 13.42	 
x(2,0) = 23.00	 x(2,1) = 4.53	 x(2,2) = 11.53	 
y(0,1,0) = 0.00	 y(1,0,0) = 1.00	 
y(0,2,0) = 0.00	 y(2,0,0) = 1.00	 
y(1,2,0) = 0.89	 y(2,1,0) = 0.11	 
y(0,1,1) = 0.11	 y(1,0,1) = 0.89	 
y(0,2,1) = 0.08	 y(2,0,1) = 0.92	 
y(1,2,1) = 0.64	 y(2,1,1) = 0.36	 
y(0,1,2) = 0.31	 y(1,0,2) = 0.69	 
y(0,2,2) = 0.20	 y(2,0,2) = 0.80	 
y(1,2,2) = 0.44	 y(2,1,2) = 0.56	 
{(1, 2), (0, 1), (0, 2), (2, 1), (2, 2), (1, 0), (1, 1)}
obj:  1.0240930623373818
erro
[(1, 2), (0, 1), (0, 2), (2, 1), (2, 2), (1, 0), (1, 1)]
cliques:  0 mip: 0
iterações: 14 cortes cliques encontrados: 3 mip: 1024 objective:  26.000000000000004
Coin0506I Presolve 65 (-61) rows, 39 (-25) columns and 202 (-86) elements
Clp1000I sum of infeasibilities 3.24924e-06 - average 4.99884e-08, 0 fixed columns
Coin0506I Presolve 65 (0) rows, 39 (0) columns and 202 (0) elements
Clp0029I End of values pass after 39 iterations
Clp0000I Optimal - objective value 15
Clp0000I Optimal - objective value 15
Coin0511I After Postsolve, objective 15, infeasibilities - dual 0 (0), primal 0 (0)
Clp0000I Optimal - objective value 15
Clp0000I Optimal - objective value 15
Clp0000I Optimal - objective value 15
Coin0511I After Postsolve, objective 15, infeasibilities - dual 0 (0), primal 0 (0)
Clp0032I Optimal objective 15 - 0 iterations time 0.002, Presolve 0.00, Idiot 0.00
Coin3009W Conflict graph built in 0.000 seconds, density: 0.147%
